(declare-fun temp90640_1 () (_ BitVec 64))
(declare-fun temp90640_2 () (_ BitVec 64))
(declare-fun var77740 () (_ BitVec 64))
(declare-fun k!0 () Bool)
(declare-fun ARGNAME_input_1_NAMEEND_DIM () (_ BitVec 64))
(declare-fun ARGNAME_data_format_NAMEEND_STRFMT () (_ BitVec 64))
(declare-fun temp90640_3 () (_ BitVec 64))
(declare-fun ARGNAME_input_2_NAMEEND_DIM () (_ BitVec 64))
(declare-fun var77770 () (_ BitVec 64))
(declare-fun temp90640_4 () (_ BitVec 64))
(declare-fun temp90640_5 () (_ BitVec 64))
(declare-fun ARGNAME_input_1_NAMEEND_DIMSIZE
             ()
             (Array (_ BitVec 64) (_ BitVec 64)))
(declare-fun temp90640_6 () (_ BitVec 64))
(declare-fun temp90640_7 () (_ BitVec 64))
(declare-fun temp90640_8 () (_ BitVec 64))
(declare-fun temp90640_9 () (_ BitVec 64))
(declare-fun temp90640_10 () (_ BitVec 64))
(declare-fun temp90640_11 () (_ BitVec 64))
(declare-fun temp90640_12 () (_ BitVec 64))
(declare-fun temp90640_13 () (_ BitVec 64))
(declare-fun temp90640_14 () (_ BitVec 64))
(declare-fun temp90640_15 () (_ BitVec 64))
(declare-fun temp90640_16 () (_ BitVec 64))
(declare-fun temp90640_17 () (_ BitVec 64))
(declare-fun temp90640_18 () (_ BitVec 64))
(declare-fun var77799 () (_ BitVec 64))
(declare-fun temp90640_19 () (_ BitVec 64))
(declare-fun ARGNAME_input_2_NAMEEND_DIMSIZE
             ()
             (Array (_ BitVec 64) (_ BitVec 64)))
(declare-fun temp90640_20 () (_ BitVec 64))
(declare-fun temp90640_21 () (_ BitVec 64))
(declare-fun temp90640_22 () (_ BitVec 64))
(declare-fun temp90640_23 () (_ BitVec 64))
(declare-fun temp90640_24 () (_ BitVec 64))
(declare-fun temp90640_25 () (_ BitVec 64))
(declare-fun temp90640_26 () (_ BitVec 64))
(declare-fun temp90640_27 () (_ BitVec 64))
(declare-fun temp90640_28 () (_ BitVec 64))
(declare-fun temp90640_29 () (_ BitVec 64))
(declare-fun temp90640_30 () (_ BitVec 64))
(declare-fun temp90640_31 () (_ BitVec 64))
(declare-fun temp90640_32 () (_ BitVec 64))
(declare-fun var77832 () (_ BitVec 64))
(declare-fun temp90640_33 () (_ BitVec 64))
(declare-fun temp90640_34 () (_ BitVec 64))
(declare-fun var77833 () (_ BitVec 64))
(declare-fun var77834 () (_ BitVec 64))
(declare-fun temp90640_35 () (_ BitVec 64))
(declare-fun temp90640_36 () (_ BitVec 64))
(declare-fun var275510 () (_ BitVec 64))
(declare-fun temp90640_37 () (_ BitVec 64))
(declare-fun var275528 () (_ BitVec 64))
(declare-fun temp90640_38 () (_ BitVec 64))
(declare-fun temp90640_40 () (_ BitVec 64))
(declare-fun temp90640_39 () (_ BitVec 64))
(declare-fun temp90640_41 () (_ BitVec 64))
(declare-fun var472118 () (_ BitVec 64))
(declare-fun temp90640_42 () (_ BitVec 64))
(declare-fun var472136 () (_ BitVec 64))
(declare-fun temp90640_43 () (_ BitVec 64))
(declare-fun temp90640_45 () (_ BitVec 64))
(declare-fun temp90640_44 () (_ BitVec 64))
(declare-fun temp90640_47 () (_ BitVec 64))
(declare-fun temp90640_46 () (_ BitVec 64))
(declare-fun temp90640_48 () (_ BitVec 64))
(declare-fun var603190 () (_ BitVec 64))
(declare-fun temp90640_49 () (_ BitVec 64))
(declare-fun var603208 () (_ BitVec 64))
(declare-fun temp90640_50 () (_ BitVec 64))
(declare-fun temp90640_52 () (_ BitVec 64))
(declare-fun temp90640_51 () (_ BitVec 64))
(declare-fun temp90640_54 () (_ BitVec 64))
(declare-fun temp90640_53 () (_ BitVec 64))
(declare-fun temp90640_56 () (_ BitVec 64))
(declare-fun temp90640_55 () (_ BitVec 64))
(declare-fun temp90640_58 () (_ BitVec 64))
(declare-fun temp90640_57 () (_ BitVec 64))
(declare-fun temp90640_59 () (_ BitVec 64))
(declare-fun var861259 () (_ BitVec 64))
(declare-fun var861238 () (_ BitVec 64))
(declare-fun var795670 () (_ BitVec 64))
(declare-fun temp90640_60 () (_ BitVec 64))
(declare-fun temp90640_61 () (_ BitVec 64))
(declare-fun var926795 () (_ BitVec 64))
(declare-fun var926774 () (_ BitVec 64))
(declare-fun var795680 () (_ BitVec 64))
(declare-fun temp90640_62 () (_ BitVec 64))
(declare-fun temp90640_63 () (_ BitVec 64))
(declare-fun var1188914 () (_ BitVec 64))
(declare-fun temp90640_64 () (_ BitVec 64))
(declare-fun var1254450 () (_ BitVec 64))
(declare-fun temp90640_65 () (_ BitVec 64))
(declare-fun var1319986 () (_ BitVec 64))
(declare-fun temp90640_66 () (_ BitVec 64))
(declare-fun var78184 () (_ BitVec 64))
(assert (or (= ARGNAME_data_format_NAMEEND_STRFMT #x0000000000000000)
    (= ARGNAME_data_format_NAMEEND_STRFMT #x0000000000000001)
    (= ARGNAME_data_format_NAMEEND_STRFMT #x0000000000000002)
    (= ARGNAME_data_format_NAMEEND_STRFMT #x0000000000000003)
    (= ARGNAME_data_format_NAMEEND_STRFMT #x0000000000000004)
    (= ARGNAME_data_format_NAMEEND_STRFMT #x0000000000000005)))
(assert (= temp90640_1 #x0000000000000005))
(assert (= var77740
   (ite (= ARGNAME_input_1_NAMEEND_DIM temp90640_1)
        #x0000000000000001
        #x0000000000000000)))
(assert (= temp90640_2 #x0000000000000001))
(assert (= var77740 temp90640_2))
(assert (= temp90640_3 #x0000000000000005))
(assert (= var77770
   (ite (= ARGNAME_input_2_NAMEEND_DIM temp90640_3)
        #x0000000000000001
        #x0000000000000000)))
(assert (= temp90640_4 #x0000000000000001))
(assert (= var77770 temp90640_4))
(assert (= temp90640_5 #x0000000000000000))
(assert (= temp90640_6 (select ARGNAME_input_1_NAMEEND_DIMSIZE temp90640_5)))
(assert (= temp90640_7 #x0000000000000001))
(assert (= temp90640_8 (select ARGNAME_input_1_NAMEEND_DIMSIZE temp90640_7)))
(assert (= temp90640_9 #x0000000000000002))
(assert (= temp90640_10 (select ARGNAME_input_1_NAMEEND_DIMSIZE temp90640_9)))
(assert (= temp90640_11 #x0000000000000003))
(assert (= temp90640_12 (select ARGNAME_input_1_NAMEEND_DIMSIZE temp90640_11)))
(assert (= temp90640_13 #x0000000000000004))
(assert (= temp90640_14 (select ARGNAME_input_1_NAMEEND_DIMSIZE temp90640_13)))
(assert (= temp90640_15 #x0000000000000005))
(assert (= temp90640_16 (select ARGNAME_input_1_NAMEEND_DIMSIZE temp90640_15)))
(assert (= temp90640_17 #x0000000000000003))
(assert (= temp90640_18 (select ARGNAME_input_1_NAMEEND_DIMSIZE temp90640_17)))
(assert (= var77799 temp90640_18))
(assert (= temp90640_19 #x0000000000000000))
(assert (= temp90640_20 (select ARGNAME_input_2_NAMEEND_DIMSIZE temp90640_19)))
(assert (= temp90640_21 #x0000000000000001))
(assert (= temp90640_22 (select ARGNAME_input_2_NAMEEND_DIMSIZE temp90640_21)))
(assert (= temp90640_23 #x0000000000000002))
(assert (= temp90640_24 (select ARGNAME_input_2_NAMEEND_DIMSIZE temp90640_23)))
(assert (= temp90640_25 #x0000000000000003))
(assert (= temp90640_26 (select ARGNAME_input_2_NAMEEND_DIMSIZE temp90640_25)))
(assert (= temp90640_27 #x0000000000000004))
(assert (= temp90640_28 (select ARGNAME_input_2_NAMEEND_DIMSIZE temp90640_27)))
(assert (= temp90640_29 #x0000000000000005))
(assert (= temp90640_30 (select ARGNAME_input_2_NAMEEND_DIMSIZE temp90640_29)))
(assert (= temp90640_31 #x0000000000000004))
(assert (= temp90640_32 (select ARGNAME_input_2_NAMEEND_DIMSIZE temp90640_31)))
(assert (= var77832 temp90640_32))
(assert (= temp90640_33 #x0000000000000004))
(assert (= temp90640_34 (select ARGNAME_input_1_NAMEEND_DIMSIZE temp90640_33)))
(assert (= var77833 temp90640_34))
(assert (= var77834 (ite (= var77832 var77833) #x0000000000000001 #x0000000000000000)))
(assert (= temp90640_35 #x0000000000000001))
(assert (= var77834 temp90640_35))
(assert (= temp90640_36 #x0000000000000001))
(assert (= var275510 temp90640_36))
(assert (= temp90640_37 #x0000000000000001))
(assert (= var275528
   (ite (bvslt var275510 temp90640_37) #x0000000000000001 #x0000000000000000)))
(assert (= temp90640_38 #x0000000000000000))
(assert (= var275528 temp90640_38))
(assert (= temp90640_40 #x0000000000000000))
(assert (= temp90640_39 temp90640_40))
(assert (= temp90640_41 #x0000000000000001))
(assert (= var472118 temp90640_41))
(assert (= temp90640_42 #x0000000000000001))
(assert (= var472136
   (ite (bvslt var472118 temp90640_42) #x0000000000000001 #x0000000000000000)))
(assert (= temp90640_43 #x0000000000000000))
(assert (= var472136 temp90640_43))
(assert (= temp90640_45 #x0000000000000000))
(assert (= temp90640_44 temp90640_45))
(assert (= temp90640_47 #x0000000000000000))
(assert (= temp90640_46 temp90640_47))
(assert (= temp90640_48 #x0000000000000001))
(assert (= var603190 temp90640_48))
(assert (= temp90640_49 #x0000000000000001))
(assert (= var603208
   (ite (bvslt var603190 temp90640_49) #x0000000000000001 #x0000000000000000)))
(assert (= temp90640_50 #x0000000000000000))
(assert (= var603208 temp90640_50))
(assert (= temp90640_52 #x0000000000000000))
(assert (= temp90640_51 temp90640_52))
(assert (= temp90640_54 #x00000000000000ff))
(assert (= temp90640_53 temp90640_54))
(assert (= temp90640_56 #x00000000000000ff))
(assert (= temp90640_55 temp90640_56))
(assert (= temp90640_58 #x00000000000000ff))
(assert (= temp90640_57 temp90640_58))
(assert (= temp90640_59 #x0000000000000000))
(assert (= var861259 temp90640_59))
(assert (= var861238 var861259))
(assert (= var795670 var861238))
(assert (= temp90640_60 #x0000000000000000))
(assert (= var795670 temp90640_60))
(assert (= temp90640_61 #x0000000000000000))
(assert (= var926795 temp90640_61))
(assert (= var926774 var926795))
(assert (= var795680 var926774))
(assert (= temp90640_62 #x0000000000000000))
(assert (= var795680 temp90640_62))
(assert (= temp90640_63 #x0000000000008000))
(assert (= var1188914 temp90640_63))
(assert (= temp90640_64 #x0000000000040000))
(assert (= var1254450 temp90640_64))
(assert (= temp90640_65 #x0000000000200000))
(assert (= var1319986 temp90640_65))
(assert (= temp90640_66 #x0000000000000001))
(assert (= var78184 temp90640_66))
(model-add temp90640_1 () (_ BitVec 64) #x0000000000000005)
(model-add temp90640_2 () (_ BitVec 64) #x0000000000000001)
(model-add var77740 () (_ BitVec 64) #x0000000000000001)
(model-del k!0)
(model-add ARGNAME_input_1_NAMEEND_DIM
           ()
           (_ BitVec 64)
           (ite k!0 #x0000000000000005 (bvnot #x0000000000000005)))

